
  32    1
  10

   0   0   7 2 3 4 5 6 9 12 
   7   5   5 16 13 11 8 7 
   7   8   5 20 14 13 11 10 
   3   8   6 24 19 17 15 14 13 
   3   5   3 20 13 8 
   8   8   3 20 14 8 
  10   8   6 29 24 19 17 15 14 
  10  10   6 31 30 23 19 18 17 
   3  10   6 31 29 23 19 17 14 
   1   9   4 30 18 17 15 
   3  10   6 30 29 27 24 22 19 
   1   8   4 24 23 20 17 
   7   8   5 30 29 28 23 21 
   9   6   5 30 28 27 22 21 
   9   7   4 28 23 22 21 
   9   6   3 24 23 22 
   8   9   3 28 22 21 
   1   5   3 29 27 21 
   5   8   2 28 21 
   2   9   1 21 
   2   9   2 26 25 
   9   8   2 26 25 
   4   8   2 27 25 
   7   9   1 31 
   7   9   1 32
  10  10   1 32
   8  10   1 32
   4   8   1 32
   3   4   1 32
   3   9   1 32
   6   9   1 32
   0   0   0 
